============================[ Problem Statistics ]=============================|                                                                             ||  Number of variables:          4242                                         ||  Number of clauses:            9951                                         ||  Parse time:                   0.36 s                                       ||                                                                             |============================[ Search Statistics ]==============================| Conflicts |          ORIGINAL         |          LEARNT          | Progress ||           |    Vars  Clauses Literals |    Limit  Clauses Lit/Cl |          |===============================================================================|       100 |    1591     6156   541597 |     2257      100     53 | 62.501 % |===============================================================================restarts              : 2conflicts             : 199            (373 /sec)decisions             : 369            (0.00 % random) (691 /sec)propagations          : 10063          (18845 /sec)conflict literals     : 13997          (95.16 % deleted)CPU time              : 0.534 sSATISFIABLE